Welcome to the CBC MILP Solver 
Version: 2.10.3 
Build Date: Dec 15 2019 

command line - C:\Users\YEO Nadege\AppData\Local\Packages\PythonSoftwareFoundation.Python.3.9_qbz5n2kfra8p0\LocalCache\local-packages\Python39\site-packages\pulp\apis\..\solverdir\cbc\win\64\cbc.exe C:\PROGRA~1\KMSpico\temp\e7b9bb59ef194b668f68b9cab8babb69-pulp.mps timeMode elapsed branch printingOptions all solution C:\PROGRA~1\KMSpico\temp\e7b9bb59ef194b668f68b9cab8babb69-pulp.sol (default strategy 1)
At line 2 NAME          MODEL
At line 3 ROWS
At line 69 COLUMNS
At line 251 RHS
At line 316 BOUNDS
At line 339 ENDATA
Problem MODEL has 64 rows, 23 columns and 136 elements
Coin0008I MODEL read with 0 errors
Option for timeMode changed from cpu to elapsed
Continuous objective value is 0 - 0.00 seconds
Cgl0003I 0 fixed, 6 tightened bounds, 18 strengthened rows, 83 substitutions
Cgl0003I 0 fixed, 5 tightened bounds, 10 strengthened rows, 0 substitutions
Cgl0003I 0 fixed, 5 tightened bounds, 5 strengthened rows, 0 substitutions
Cgl0003I 0 fixed, 5 tightened bounds, 5 strengthened rows, 0 substitutions
Cgl0003I 0 fixed, 5 tightened bounds, 5 strengthened rows, 0 substitutions
Cgl0003I 0 fixed, 5 tightened bounds, 5 strengthened rows, 0 substitutions
Cgl0003I 0 fixed, 5 tightened bounds, 5 strengthened rows, 0 substitutions
Cgl0003I 0 fixed, 5 tightened bounds, 5 strengthened rows, 0 substitutions
Cgl0003I 0 fixed, 5 tightened bounds, 5 strengthened rows, 0 substitutions
Cgl0004I processed model has 21 rows, 7 columns (7 integer (1 of which binary)) and 58 elements
Cutoff increment increased from 1e-05 to 0.9999
Cbc0012I Integer solution of -0 found by DiveCoefficient after 0 iterations and 0 nodes (0.01 seconds)
Cbc0001I Search completed - best objective -0, took 0 iterations and 0 nodes (0.01 seconds)
Cbc0035I Maximum depth 0, 0 variables fixed on reduced cost
Cuts at root node changed objective from 0 to 0
Probing was tried 0 times and created 0 cuts of which 0 were active after adding rounds of cuts (0.000 seconds)
Gomory was tried 0 times and created 0 cuts of which 0 were active after adding rounds of cuts (0.000 seconds)
Knapsack was tried 0 times and created 0 cuts of which 0 were active after adding rounds of cuts (0.000 seconds)
Clique was tried 0 times and created 0 cuts of which 0 were active after adding rounds of cuts (0.000 seconds)
MixedIntegerRounding2 was tried 0 times and created 0 cuts of which 0 were active after adding rounds of cuts (0.000 seconds)
FlowCover was tried 0 times and created 0 cuts of which 0 were active after adding rounds of cuts (0.000 seconds)
TwoMirCuts was tried 0 times and created 0 cuts of which 0 were active after adding rounds of cuts (0.000 seconds)
ZeroHalf was tried 0 times and created 0 cuts of which 0 were active after adding rounds of cuts (0.000 seconds)

Result - Optimal solution found

Objective value:                -0.00000000
Enumerated nodes:               0
Total iterations:               0
Time (CPU seconds):             0.01
Time (Wallclock seconds):       0.01

Option for printingOptions changed from normal to all
Total time (CPU seconds):       0.01   (Wallclock seconds):       0.01

